PARAMETER_FILE = ./image_ur.par
Reading PROBLEM_FILE: "image_ur.tsp" ... done
ASCENT_CANDIDATES = 50
BACKBONE_TRIALS = 0
BACKTRACKING = NO
# CANDIDATE_FILE =
CANDIDATE_SET_TYPE = ALPHA
# EDGE_FILE =
EXCESS = 6.05657e-05
EXTRA_CANDIDATES = 0 
EXTRA_CANDIDATE_SET_TYPE = QUADRANT
GAIN23 = YES
GAIN_CRITERION = YES
INITIAL_PERIOD = 1000
INITIAL_STEP_SIZE = 1
INITIAL_TOUR_ALGORITHM = WALK
# INITIAL_TOUR_FILE = 
INITIAL_TOUR_FRACTION = 1.000
# INPUT_TOUR_FILE = 
KICK_TYPE = 0
KICKS = 1
# MAX_BREADTH =
MAX_CANDIDATES = 0 
MAX_SWAPS = 16511
MAX_TRIALS = 2
# MERGE_TOUR_FILE =
MOVE_TYPE = 5
NONSEQUENTIAL_MOVE_TYPE = 9
# OPTIMUM =
# OUTPUT_TOUR_FILE = 
PATCHING_A = 2 
PATCHING_C = 3 
# PI_FILE = 
POPMUSIC_INITIAL_TOUR = NO
POPMUSIC_MAX_NEIGHBORS = 5
POPMUSIC_SAMPLE_SIZE = 10
POPMUSIC_SOLUTIONS = 50
POPMUSIC_TRIALS = 1
# POPULATION_SIZE = 0
PRECISION = 100
PROBLEM_FILE = image_ur.tsp
RECOMBINATION = IPT
RESTRICTED_SEARCH = YES
RUNS = 2
SEED = 1
STOP_AT_OPTIMUM = YES
SUBGRADIENT = YES
# SUBPROBLEM_SIZE =
# SUBPROBLEM_TOUR_FILE = 
SUBSEQUENT_MOVE_TYPE = 5
SUBSEQUENT_PATCHING = YES
# TIME_LIMIT =
TOUR_FILE = tour_ur
TRACE_LEVEL = 1

Lower bound = 18182756.1, Ascent time = 30.23 sec.
Cand.min = 5, Cand.avg = 13.8, Cand.max = 14
Preprocessing time = 30.25 sec.
* 1: Cost = 18188917, Time = 115.09 sec. 
Writing TOUR_FILE: "tour_ur" ... done
Run 1: Cost = 18188917, Time = 220.27 sec. 

* 1: Cost = 18189995, Time = 116.25 sec. 
* 2: Cost = 18189061, Time = 184.55 sec. 
Writing TOUR_FILE: "tour_ur" ... done
Run 2: Cost = 18188916, Time = 184.56 sec. 

Successes/Runs = 0/2
Cost.min = 18188916, Cost.avg = 18188916.50, Cost.max = 18188917
Gap.min = 0.0000%, Gap.avg = 0.0000%, Gap.max = 0.0000%
Trials.min = 2, Trials.avg = 2.0, Trials.max = 2
Time.min = 184.56 sec., Time.avg = 202.41 sec., Time.max = 220.27 sec.
Time.total = 435.17 sec.
